c Created with the Wolfram Language : www.wolfram.com
c 
p edge 70 345
e 1 2
e 1 4
e 1 5
e 4 8
e 5 8
e 7 10
e 2 11
e 8 11
e 5 13
e 6 14
e 13 14
e 1 15
e 3 15
e 6 15
e 11 15
e 14 15
e 4 16
e 6 16
e 3 17
e 10 17
e 4 18
e 7 18
e 12 18
e 13 18
e 15 18
e 3 19
e 7 20
e 17 20
e 5 21
e 15 22
e 17 22
e 18 22
e 6 23
e 14 23
e 15 23
e 19 23
e 21 23
e 22 23
e 1 24
e 3 24
e 16 25
e 1 26
e 4 26
e 15 26
e 17 26
e 19 26
e 4 27
e 16 27
e 18 27
e 19 27
e 6 28
e 11 28
e 25 28
e 1 29
e 3 29
e 4 29
e 6 29
e 15 29
e 23 29
e 24 29
e 14 30
e 15 30
e 18 30
e 21 30
e 22 30
e 23 30
e 26 30
e 1 31
e 2 31
e 4 31
e 6 31
e 7 31
e 30 31
e 6 32
e 25 32
e 27 32
e 6 33
e 23 33
e 28 33
e 31 33
e 1 34
e 6 34
e 14 34
e 16 34
e 19 34
e 21 34
e 25 34
e 10 35
e 15 35
e 28 35
e 34 35
e 3 36
e 14 36
e 16 36
e 26 36
e 28 36
e 8 37
e 19 37
e 25 37
e 26 37
e 30 37
e 2 38
e 11 38
e 21 38
e 23 38
e 32 38
e 2 39
e 15 39
e 21 39
e 32 39
e 35 39
e 38 39
e 1 40
e 6 40
e 13 40
e 15 40
e 17 40
e 21 40
e 28 40
e 29 40
e 31 40
e 33 40
e 36 40
e 37 40
e 10 41
e 12 41
e 23 41
e 32 41
e 4 42
e 6 42
e 7 42
e 9 42
e 24 42
e 27 42
e 8 43
e 14 43
e 28 43
e 31 43
e 1 44
e 12 44
e 18 44
e 19 44
e 36 44
e 11 45
e 14 45
e 28 45
e 35 45
e 42 45
e 43 45
e 7 46
e 14 46
e 15 46
e 16 46
e 37 46
e 38 46
e 44 46
e 8 47
e 11 47
e 13 47
e 20 47
e 26 47
e 32 47
e 35 47
e 43 47
e 46 47
e 3 48
e 10 48
e 16 48
e 24 48
e 34 48
e 36 48
e 37 48
e 5 49
e 17 49
e 26 49
e 29 49
e 31 49
e 33 49
e 34 49
e 41 49
e 45 49
e 47 49
e 21 50
e 49 50
e 8 51
e 10 51
e 18 51
e 21 51
e 25 51
e 36 51
e 5 52
e 20 52
e 27 52
e 29 52
e 39 52
e 44 52
e 50 52
e 6 53
e 11 53
e 14 53
e 15 53
e 16 53
e 18 53
e 19 53
e 25 53
e 27 53
e 39 53
e 50 53
e 7 54
e 12 54
e 14 54
e 30 54
e 37 54
e 38 54
e 6 55
e 9 55
e 15 55
e 16 55
e 22 55
e 28 55
e 37 55
e 40 55
e 12 56
e 18 56
e 19 56
e 26 56
e 28 56
e 32 56
e 37 56
e 39 56
e 47 56
e 2 57
e 4 57
e 5 57
e 20 57
e 22 57
e 24 57
e 27 57
e 30 57
e 34 57
e 40 57
e 42 57
e 45 57
e 46 57
e 6 58
e 11 58
e 12 58
e 13 58
e 30 58
e 37 58
e 40 58
e 45 58
e 46 58
e 6 59
e 11 59
e 15 59
e 20 59
e 22 59
e 30 59
e 45 59
e 56 59
e 14 60
e 31 60
e 33 60
e 45 60
e 59 60
e 5 61
e 8 61
e 16 61
e 17 61
e 19 61
e 24 61
e 33 61
e 39 61
e 47 61
e 48 61
e 50 61
e 53 61
e 59 61
e 11 62
e 12 62
e 29 62
e 44 62
e 45 62
e 56 62
e 61 62
e 8 63
e 12 63
e 15 63
e 29 63
e 34 63
e 39 63
e 48 63
e 49 63
e 51 63
e 59 63
e 6 64
e 25 64
e 29 64
e 35 64
e 55 64
e 63 64
e 5 65
e 6 65
e 28 65
e 29 65
e 36 65
e 59 65
e 13 66
e 36 66
e 51 66
e 54 66
e 55 66
e 8 67
e 16 67
e 18 67
e 32 67
e 39 67
e 46 67
e 54 67
e 61 67
e 62 67
e 5 68
e 25 68
e 35 68
e 58 68
e 4 69
e 6 69
e 7 69
e 11 69
e 15 69
e 24 69
e 41 69
e 47 69
e 52 69
e 57 69
e 61 69
e 65 69
e 16 70
e 41 70
e 44 70
e 52 70
e 62 70
e 64 70
e 66 70
